; benchmark generated from python API
(set-info :status unknown)
(declare-datatypes ((RealState 0)) (((RMk1 (rval1 Real)) (RMk2 (rval2 Real)))))
 (assert
 (forall ((|v17:0| Real) )(forall ((|v16:1| Real) )(forall ((|v15:2| Real) )(forall ((|v14:3| Real) )(forall ((|v13:4| Real) )(forall ((|v12:5| Real) )(exists ((|v11:6_st| RealState) (val!8880 Real) )(exists ((|v10:7_st| RealState) (val!8881 Real) )(exists ((|v9:8_st| RealState) (val!8882 Real) )(exists ((|v8:9_st| RealState) (val!8883 Real) )(exists ((|v7:10_st| RealState) (val!8884 Real) )(exists ((|v6:11_st| RealState) (val!8885 Real) )(forall ((|v5:12| Real) )(forall ((|v4:13| Real) )(forall ((|v3:14| Real) )(forall ((|v2:15| Real) )(forall ((|v1:16| Real) )(forall ((|v0:17| Real) )(let ((?x3135 (* 10.0 |v1:16|)))
 (let ((?x5682 (- 2.0)))
 (let ((?x2091 (* ?x5682 |v15:2|)))
 (let ((?x3791 (- 6.0)))
 (let ((?x1457 (* ?x3791 |v14:3|)))
 (let ((?x4051 (- 8.0)))
 (let ((?x1974 (* ?x4051 |v0:17|)))
 (let ((?x5644 (+ (+ (+ (+ (+ (* (- 15.0) |v13:4|) (* 9.0 |v3:14|)) |v14:3|) ?x1974) ?x1457) ?x2091)))
 (let ((?x6777 (* 3.0 |v14:3|)))
 (let ((?x1841 (* 7.0 |v13:4|)))
 (let ((?x5809 (+ (+ (* (- 16.0) (rval2 |v10:7_st|)) (* 11.0 |v4:13|)) (* (- 12.0) (rval2 |v6:11_st|)))))
 (let ((?x2964 (+ (+ (+ (+ ?x5809 (* (- 12.0) (rval2 |v11:6_st|))) ?x1841) ?x6777) (* ?x3791 |v15:2|))))
 (let ((?x2725 (- 4.0)))
 (let ((?x5377 (- 10.0)))
 (let ((?x7288 (* ?x5377 |v2:15|)))
 (let ((?x4888 (rval2 |v9:8_st|)))
 (let ((?x1515 (- 15.0)))
 (let ((?x8761 (* ?x1515 ?x4888)))
 (let ((?x5999 (* 2.0 |v1:16|)))
 (let ((?x3647 (* 16.0 |v2:15|)))
 (let ((?x3386 (+ (+ (* (- 20.0) |v12:5|) (* ?x5377 (rval2 |v7:10_st|))) (* (- 14.0) |v15:2|))))
 (let ((?x1928 (- 16.0)))
 (let ((?x3261 (* 14.0 ?x4888)))
 (let ((?x79 (* ?x4051 |v2:15|)))
 (let ((?x3841 (* 5.0 |v0:17|)))
 (let ((?x2924 (* ?x5377 |v1:16|)))
 (let ((?x5398 (+ (+ (+ (* (- 9.0) (rval2 |v8:9_st|)) (* (- 5.0) |v2:15|)) ?x2924) ?x3841)))
 (let (($x3464 (or (<= (+ (+ (+ ?x5398 ?x79) ?x3261) (* (- 1.0) (rval2 |v8:9_st|))) ?x1928) (<= (+ (+ (+ (+ ?x3386 ?x3647) ?x5999) ?x8761) ?x7288) ?x2725))))
 (let ((?x1151 (- 18.0)))
 (let ((?x2385 (* ?x1151 |v3:14|)))
 (let ((?x5647 (rval2 |v6:11_st|)))
 (let ((?x983 (* 16.0 ?x5647)))
 (let ((?x1028 (- 7.0)))
 (let ((?x895 (* ?x1028 |v0:17|)))
 (let ((?x954 (+ (+ (+ ?x3841 (* 19.0 |v1:16|)) (* (- 11.0) |v2:15|)) ?x895)))
 (let ((?x133 (* ?x2725 |v1:16|)))
 (let ((?x2162 (* 14.0 |v1:16|)))
 (let ((?x7153 (+ (+ (+ (* ?x4051 (rval2 |v11:6_st|)) ?x895) (* 8.0 |v12:5|)) (* 5.0 |v17:0|))))
 (let (($x7179 (or (<= (+ (+ (+ ?x7153 ?x2162) ?x133) (* ?x4051 |v14:3|)) 20.0) (<= (+ (+ (+ ?x954 (* ?x3791 ?x5647)) ?x983) ?x2385) 11.0))))
 (let ((?x1232 (rval2 |v11:6_st|)))
 (let ((?x7158 (* 5.0 ?x1232)))
 (let ((?x4204 (- 17.0)))
 (let ((?x3401 (* ?x4204 |v0:17|)))
 (let ((?x692 (+ (+ (+ (+ (* (- 11.0) ?x1232) ?x2924) (* ?x5377 |v16:1|)) (* ?x1928 ?x5647)) (* 0.0 |v12:5|))))
 (let ((?x6902 (* ?x4051 ?x1232)))
 (let ((?x4205 (- 5.0)))
 (let ((?x2890 (* ?x4205 ?x1232)))
 (let ((?x1360 (+ (+ (+ (* (- 19.0) (rval2 |v7:10_st|)) (* ?x4204 (rval2 |v8:9_st|))) ?x2890) (* 2.0 |v13:4|))))
 (let (($x8057 (or (<= (+ (+ (+ ?x1360 (* ?x1515 |v14:3|)) |v3:14|) ?x6902) 17.0) (<= (+ (+ ?x692 ?x3401) ?x7158) 5.0))))
 (let (($x83 (and (and $x8057 $x7179) (and $x3464 (and (<= ?x2964 15.0) (<= (+ ?x5644 ?x3135) 1.0))))))
 (let ((?x207 (- 13.0)))
 (let ((?x3336 (* 12.0 |v1:16|)))
 (let ((?x4069 (* 4.0 |v13:4|)))
 (let ((?x1259 (* 5.0 |v1:16|)))
 (let ((?x4839 (* 13.0 |v4:13|)))
 (let ((?x2854 (+ (+ (+ (* (- 9.0) (rval2 |v10:7_st|)) (* 6.0 ?x4888)) (* 18.0 |v13:4|)) ?x4839)))
 (let ((?x2603 (* 7.0 |v2:15|)))
 (let ((?x2579 (rval2 |v8:9_st|)))
 (let ((?x4660 (- 19.0)))
 (let ((?x5230 (* ?x4660 ?x2579)))
 (let ((?x7125 (* 9.0 |v0:17|)))
 (let ((?x2592 (+ (+ (+ (* (- 9.0) |v3:14|) (* 7.0 (rval2 |v7:10_st|))) (* ?x1515 |v0:17|)) ?x7125)))
 (let ((?x2638 (rval2 |v10:7_st|)))
 (let ((?x1301 (* 16.0 ?x2638)))
 (let ((?x5513 (* ?x1928 ?x2638)))
 (let ((?x4296 (rval2 |v7:10_st|)))
 (let ((?x191 (* 16.0 ?x4296)))
 (let ((?x4392 (* 2.0 |v2:15|)))
 (let ((?x1031 (+ (+ (+ (+ (* ?x3791 |v2:15|) (* ?x4660 |v4:13|)) (* 6.0 ?x4888)) ?x4392) ?x191)))
 (let (($x2429 (and (<= (+ (+ ?x1031 ?x5513) ?x1301) ?x4660) (<= (+ (+ (+ ?x2592 ?x5230) ?x2603) (* 20.0 |v14:3|)) ?x3791))))
 (let ((?x595 (* 10.0 ?x4888)))
 (let ((?x513 (* 16.0 |v14:3|)))
 (let ((?x4372 (- 20.0)))
 (let ((?x6826 (* ?x4372 |v5:12|)))
 (let ((?x3985 (+ (+ (+ (+ (+ (* 3.0 ?x1232) (* (- 11.0) |v0:17|)) ?x513) ?x6826) ?x513) ?x595)))
 (let ((?x2556 (* 19.0 |v5:12|)))
 (let ((?x303 (* 18.0 ?x2579)))
 (let ((?x7696 (+ (+ (+ (* ?x3791 |v17:0|) (* (- 12.0) |v17:0|)) (* 11.0 ?x2579)) (* ?x5682 ?x1232))))
 (let (($x3295 (and (<= (+ (+ (+ ?x7696 ?x303) ?x2556) ?x2890) ?x3791) (<= (+ ?x3985 (* (- 11.0) ?x2638)) ?x4051))))
 (let ((?x2830 (- 11.0)))
 (let ((?x3871 (* ?x2830 ?x4888)))
 (let ((?x5143 (* 9.0 |v17:0|)))
 (let ((?x6357 (+ (+ (+ (+ (* ?x4372 |v15:2|) (* 8.0 |v0:17|)) (* (- 9.0) ?x4296)) ?x5143) ?x3871)))
 (let ((?x2768 (- 14.0)))
 (let ((?x1814 (* 20.0 |v13:4|)))
 (let ((?x1551 (* ?x3791 |v0:17|)))
 (let ((?x738 (- 1.0)))
 (let ((?x7186 (* ?x738 |v12:5|)))
 (let ((?x13 (+ (+ (+ (+ |v1:16| (* ?x2725 |v15:2|)) (* 11.0 |v5:12|)) (* (- 9.0) |v5:12|)) ?x7186)))
 (let (($x1424 (or (<= (+ (+ ?x13 ?x1551) ?x1814) ?x2768) (<= (+ (+ ?x6357 (* 20.0 |v12:5|)) (* ?x2725 |v16:1|)) 4.0))))
 (let (($x1609 (and (and $x1424 $x3295) (and $x2429 (<= (+ (+ (+ ?x2854 ?x1259) ?x4069) ?x3336) ?x207)))))
 (let ((?x273 (- 12.0)))
 (let ((?x2097 (* ?x273 |v2:15|)))
 (let ((?x1753 (* 8.0 |v17:0|)))
 (let ((?x5671 (+ (+ (* 4.0 |v2:15|) (* (- 9.0) |v4:13|)) (* 18.0 |v3:14|))))
 (let ((?x1468 (* ?x1515 |v17:0|)))
 (let ((?x8038 (+ (+ (+ (+ (* 10.0 |v3:14|) (* 15.0 ?x2579)) |v12:5|) (* ?x4051 |v5:12|)) ?x1468)))
 (let (($x3222 (and (<= (+ (+ ?x8038 (* ?x4205 |v15:2|)) ?x2556) 16.0) (<= (+ (+ (+ (+ ?x5671 (* ?x5377 ?x4888)) ?x5230) ?x1753) ?x2097) 17.0))))
 (let ((?x2031 (* 4.0 ?x2579)))
 (let ((?x5873 (* ?x4660 ?x5647)))
 (let ((?x5163 (* 8.0 ?x1232)))
 (let ((?x3964 (+ (+ (+ (+ (* 13.0 |v5:12|) (* ?x3791 ?x2638)) (* ?x273 ?x2638)) ?x5163) ?x5873)))
 (let ((?x4424 (* 17.0 |v0:17|)))
 (let ((?x2016 (* 9.0 |v14:3|)))
 (let ((?x2422 (+ (+ (+ (+ (* 15.0 |v2:15|) (* 13.0 |v13:4|)) (* 18.0 ?x4296)) ?x2016) (* ?x2725 |v13:4|))))
 (let (($x6977 (and (<= (+ (+ ?x2422 (* ?x4205 |v16:1|)) ?x4424) ?x2768) (and (<= (+ (+ ?x3964 (* ?x4051 ?x5647)) ?x2031) 16.0) $x3222))))
 (let ((?x791 (* 3.0 |v3:14|)))
 (let ((?x1041 (* ?x4660 ?x1232)))
 (let ((?x2256 (* 17.0 |v14:3|)))
 (let ((?x7510 (+ (+ (+ (+ (+ (* ?x2725 |v15:2|) ?x5143) ?x2638) (* ?x1928 |v16:1|)) ?x2256) ?x1041)))
 (let ((?x2092 (- 9.0)))
 (let ((?x3188 (* 9.0 |v5:12|)))
 (let ((?x755 (* ?x1151 |v0:17|)))
 (let ((?x2007 (* 3.0 |v16:1|)))
 (let ((?x3264 (+ (+ (+ (* 6.0 |v13:4|) (* ?x1028 ?x4296)) (* 19.0 |v17:0|)) (* ?x2768 ?x2579))))
 (let (($x752 (and (<= (+ (+ (+ ?x3264 ?x2007) ?x755) ?x3188) ?x2092) (<= (+ ?x7510 ?x791) ?x4372))))
 (let ((?x4703 (* 4.0 ?x5647)))
 (let ((?x4176 (* 2.0 |v0:17|)))
 (let ((?x3920 (* 8.0 ?x2638)))
 (let ((?x1572 (+ (+ (+ (+ (* ?x207 |v17:0|) (* ?x207 |v5:12|)) (* (- 3.0) |v14:3|)) ?x3920) ?x4176)))
 (let ((?x5340 (* ?x4372 |v13:4|)))
 (let ((?x628 (* ?x1928 |v15:2|)))
 (let ((?x3622 (* ?x2768 |v1:16|)))
 (let ((?x2963 (+ (+ (+ (+ (* 13.0 |v2:15|) ?x4296) (* 13.0 |v0:17|)) (* ?x207 |v12:5|)) ?x3622)))
 (let (($x412 (and (<= (+ (+ ?x2963 ?x628) ?x5340) ?x207) (<= (+ (+ ?x1572 (* 15.0 ?x1232)) ?x4703) ?x1515))))
 (let ((?x6334 (- 3.0)))
 (let ((?x3482 (* ?x6334 |v1:16|)))
 (let ((?x204 (* 9.0 |v4:13|)))
 (let ((?x2134 (+ (+ (+ (* 19.0 |v1:16|) (* ?x2830 |v15:2|)) (* ?x1028 ?x4296)) (* ?x1515 |v12:5|))))
 (let (($x1420 (or (or (<= (+ (+ (+ ?x2134 ?x3920) ?x204) ?x3482) ?x2092) (or $x412 $x752)) $x6977)))
 (let ((?x3831 (* 8.0 |v13:4|)))
 (let ((?x4291 (* ?x5377 |v17:0|)))
 (let ((?x5169 (* 0.0 |v16:1|)))
 (let ((?x7639 (+ (+ (+ (+ (* 10.0 ?x5647) (* 12.0 ?x4888)) (* ?x6334 |v17:0|)) ?x5169) ?x4291)))
 (let ((?x1634 (* 9.0 ?x4296)))
 (let ((?x2015 (* 14.0 ?x1232)))
 (let ((?x2427 (* ?x273 |v17:0|)))
 (let ((?x2868 (+ (+ (+ (+ (* ?x4205 |v2:15|) (* 4.0 |v15:2|)) (* 14.0 ?x4296)) ?x2427) ?x2015)))
 (let (($x723 (or (<= (+ (+ ?x2868 ?x1634) ?x2162) ?x1028) (<= (+ (+ ?x7639 ?x3831) ?x3647) ?x4204))))
 (let ((?x5097 (* 0.0 |v14:3|)))
 (let ((?x606 (+ (+ (+ (+ (* 2.0 ?x2638) (* 15.0 |v12:5|)) (* ?x4372 ?x2579)) ?x2603) (* ?x5682 |v17:0|))))
 (let ((?x7127 (* 15.0 |v15:2|)))
 (let ((?x283 (* ?x273 ?x2579)))
 (let ((?x4308 (* ?x207 |v15:2|)))
 (let ((?x3479 (+ (+ (+ (+ (* 18.0 |v0:17|) (* 17.0 |v12:5|)) (* ?x5377 |v13:4|)) ?x4308) ?x283)))
 (let (($x5107 (and (<= (+ (+ ?x3479 ?x7127) (* ?x207 ?x5647)) 12.0) (<= (+ (+ ?x606 (* 6.0 |v12:5|)) ?x5097) ?x4660))))
 (let ((?x4796 (* ?x3791 |v2:15|)))
 (let ((?x3078 (* ?x4372 ?x5647)))
 (let ((?x8575 (+ (+ (+ (+ (+ (* ?x1515 |v3:14|) ?x4291) (* 11.0 ?x1232)) ?x7158) ?x3482) ?x3078)))
 (let ((?x4038 (* ?x6334 |v14:3|)))
 (let ((?x4538 (+ (+ (+ (+ (* ?x1028 ?x4296) (* 4.0 |v3:14|)) (* ?x2768 |v16:1|)) ?x4038) (* ?x4372 ?x2638))))
 (let (($x524 (and (<= (+ (+ ?x4538 ?x133) (* ?x2725 ?x5647)) ?x2725) (<= (+ ?x8575 ?x4796) 19.0))))
 (let ((?x5846 (* 15.0 |v0:17|)))
 (let ((?x6829 (* 11.0 ?x2638)))
 (let ((?x6652 (* 2.0 |v14:3|)))
 (let ((?x1121 (+ (+ (+ (+ (* 15.0 |v4:13|) (* ?x3791 ?x2638)) (* ?x4051 |v17:0|)) ?x6652) ?x6829)))
 (let ((?x5861 (* 3.0 ?x2638)))
 (let ((?x1694 (* 2.0 |v5:12|)))
 (let ((?x4526 (+ (+ (+ (+ (+ (* 19.0 |v0:17|) (* ?x2725 ?x1232)) ?x5999) ?x7288) ?x1694) ?x5861)))
 (let (($x5487 (and (<= (+ ?x4526 (* ?x738 |v16:1|)) 12.0) (<= (+ (+ ?x1121 ?x5846) |v13:4|) 19.0))))
 (let ((?x4280 (* 18.0 ?x2638)))
 (let ((?x3652 (* ?x4204 ?x4888)))
 (let ((?x7071 (+ (+ (+ (+ (* ?x2092 ?x2579) ?x3647) (* ?x1151 |v5:12|)) (* 17.0 |v17:0|)) ?x3652)))
 (let ((?x3764 (* ?x4660 ?x2638)))
 (let ((?x420 (+ (+ (+ (+ ?x3871 (* ?x6334 ?x2638)) (* ?x1028 |v13:4|)) (* 15.0 |v5:12|)) ?x6652)))
 (let (($x1955 (or (<= (+ (+ ?x420 ?x6826) ?x3764) 1.0) (<= (+ (+ ?x7071 ?x4280) (* 7.0 |v15:2|)) 1.0))))
 (let ((?x2837 (* 3.0 ?x4296)))
 (let ((?x5266 (+ (+ (+ (+ (* ?x4660 |v3:14|) (* ?x4051 ?x2638)) (* ?x1928 |v1:16|)) ?x3764) ?x2837)))
 (let ((?x2369 (* ?x738 ?x2638)))
 (let ((?x3003 (* ?x738 |v1:16|)))
 (let ((?x601 (* ?x4372 |v3:14|)))
 (let ((?x3391 (* 18.0 |v2:15|)))
 (let ((?x1485 (+ (+ (+ (+ (* 18.0 ?x5647) (* 11.0 ?x4296)) (* 3.0 ?x5647)) ?x3391) ?x601)))
 (let (($x2589 (or (<= (+ (+ ?x1485 ?x3003) ?x2369) 1.0) (<= (+ (+ ?x5266 |v12:5|) (* 14.0 ?x5647)) 20.0))))
 (let ((?x4593 (* ?x1515 |v2:15|)))
 (let ((?x6708 (* 14.0 |v2:15|)))
 (let ((?x6523 (+ (+ (+ (+ (+ ?x3391 (* 9.0 ?x2638)) ?x1301) ?x3261) (* 20.0 |v15:2|)) ?x6708)))
 (let ((?x3875 (* ?x2830 |v4:13|)))
 (let ((?x534 (* 16.0 |v0:17|)))
 (let ((?x2848 (* ?x4051 |v16:1|)))
 (let ((?x6474 (+ (+ (+ (+ (* ?x1928 ?x4296) (* ?x2830 ?x1232)) ?x3401) (* 16.0 |v5:12|)) ?x2848)))
 (let ((?x1467 (* ?x2830 |v0:17|)))
 (let ((?x7106 (* ?x4204 |v2:15|)))
 (let ((?x2227 (+ (+ (+ (+ (+ (* 14.0 |v0:17|) (* 14.0 |v14:3|)) ?x1694) ?x3135) ?x1259) ?x7106)))
 (let (($x7508 (or (and (<= (+ ?x2227 ?x1467) ?x2768) (<= (+ (+ ?x6474 ?x534) ?x3875) ?x5377)) (<= (+ ?x6523 ?x4593) ?x2092))))
 (let (($x1006 (and (and $x7508 (or $x2589 $x1955)) (and (and $x5487 $x524) (and $x5107 $x723)))))
 (let ((?x5692 (* ?x2092 |v4:13|)))
 (let ((?x1651 (* 15.0 |v13:4|)))
 (let ((?x4630 (* ?x6334 |v2:15|)))
 (let ((?x3765 (+ (+ (+ (+ (* ?x6334 |v4:13|) (* ?x2092 ?x2638)) (* ?x273 |v14:3|)) ?x6777) ?x4630)))
 (let ((?x96 (* 19.0 |v16:1|)))
 (let ((?x3190 (* 0.0 |v1:16|)))
 (let ((?x5174 (+ (+ (+ (* ?x4205 |v1:16|) (* 10.0 |v5:12|)) (* ?x2725 |v3:14|)) ?x3190)))
 (let (($x2237 (or (<= (+ (+ (+ ?x5174 ?x96) (* ?x1028 ?x5647)) ?x5692) ?x207) (<= (+ (+ ?x3765 ?x1651) ?x5692) ?x5682))))
 (let ((?x2794 (* ?x1028 |v4:13|)))
 (let ((?x6108 (* 14.0 |v17:0|)))
 (let ((?x4377 (* 15.0 |v12:5|)))
 (let ((?x5279 (+ (+ (+ (+ (* ?x4051 |v1:16|) (* 11.0 |v15:2|)) (* 19.0 |v15:2|)) ?x4377) (* 15.0 ?x4888))))
 (let ((?x2648 (* 9.0 ?x5647)))
 (let ((?x439 (* 5.0 |v5:12|)))
 (let ((?x5164 (+ (+ (+ (* 7.0 ?x2638) (* 20.0 |v17:0|)) (* ?x207 |v3:14|)) (* ?x5682 |v14:3|))))
 (let (($x4695 (and (<= (+ (+ (+ ?x5164 ?x439) ?x2648) (* ?x1515 ?x2579)) 17.0) (<= (+ (+ ?x5279 ?x6108) ?x2794) 20.0))))
 (let ((?x2851 (* 15.0 |v4:13|)))
 (let ((?x7553 (* ?x1515 |v15:2|)))
 (let ((?x2889 (+ (+ (+ (+ (* ?x5377 ?x2579) (* ?x4204 ?x4296)) (* 15.0 |v3:14|)) ?x2848) (* 7.0 |v16:1|))))
 (let ((?x2216 (* ?x207 |v4:13|)))
 (let ((?x3800 (* 7.0 |v12:5|)))
 (let ((?x2510 (+ (+ (+ (+ (* ?x6334 |v17:0|) (* 11.0 ?x4888)) (* ?x4204 |v1:16|)) ?x3800) (* ?x738 ?x4888))))
 (let (($x2626 (and (<= (+ (+ ?x2510 (* ?x273 |v13:4|)) ?x2216) 14.0) (<= (+ (+ ?x2889 ?x7553) ?x2851) 17.0))))
 (let ((?x739 (+ (+ (+ (+ (+ ?x4796 |v12:5|) ?x601) ?x3188) (* 16.0 |v12:5|)) (* ?x4204 |v14:3|))))
 (let ((?x4821 (* 9.0 ?x2638)))
 (let ((?x550 (+ (+ (+ (+ (+ (* ?x1151 ?x2579) (* 0.0 |v15:2|)) ?x2837) ?x5873) ?x4821) ?x4839)))
 (let (($x7346 (or (or (and (<= (+ ?x550 ?x4280) 14.0) (<= (+ ?x739 ?x1457) ?x273)) $x2626) (or $x4695 $x2237))))
 (let ((?x8660 (* 13.0 |v5:12|)))
 (let ((?x2332 (* 8.0 ?x4888)))
 (let ((?x1711 (* ?x2830 |v3:14|)))
 (let ((?x637 (+ (+ (+ (+ (* 17.0 ?x2579) (* ?x2768 |v16:1|)) (* 18.0 |v0:17|)) ?x1711) ?x2332)))
 (let ((?x5733 (* 12.0 |v13:4|)))
 (let ((?x4315 (* ?x738 |v2:15|)))
 (let ((?x4743 (* 3.0 |v0:17|)))
 (let ((?x1170 (+ (+ (+ (* 19.0 ?x2638) (* 4.0 ?x4888)) (* ?x5682 ?x2638)) (* ?x2768 |v12:5|))))
 (let (($x5538 (or (<= (+ (+ (+ ?x1170 ?x4743) ?x4315) ?x5733) ?x6334) (<= (+ (+ ?x637 ?x2256) ?x8660) ?x2725))))
 (let ((?x2208 (* ?x4372 |v15:2|)))
 (let ((?x1964 (* 11.0 ?x4888)))
 (let ((?x255 (* 7.0 |v0:17|)))
 (let ((?x3077 (+ (+ (+ (+ (+ ?x7553 ?x2851) (* ?x1928 ?x1232)) (* 10.0 ?x2579)) ?x255) ?x1964)))
 (let ((?x6479 (* ?x1028 |v12:5|)))
 (let ((?x2387 (* 6.0 ?x1232)))
 (let ((?x4063 (+ (+ (+ (+ (* 10.0 ?x1232) (* 13.0 ?x2638)) ?x7106) (* ?x273 |v0:17|)) ?x2387)))
 (let (($x4470 (and (or (<= (+ (+ ?x4063 ?x4392) ?x6479) ?x4660) (<= (+ ?x3077 ?x2208) 16.0)) $x5538)))
 (let ((?x4657 (* 17.0 |v3:14|)))
 (let ((?x6842 (+ (+ (+ (+ (+ (* 12.0 |v2:15|) |v2:15|) ?x4657) (* 0.0 ?x2638)) ?x4657) (* ?x3791 ?x1232))))
 (let ((?x2396 (* 6.0 ?x4296)))
 (let ((?x6281 (+ (+ (+ (+ (* 4.0 |v15:2|) (* 7.0 ?x1232)) ?x7288) (* 20.0 |v4:13|)) (* ?x1928 |v12:5|))))
 (let ((?x3375 (* ?x4660 |v0:17|)))
 (let ((?x4197 (* ?x4051 |v15:2|)))
 (let ((?x4478 (+ (+ (+ (+ (+ ?x2369 (* ?x4205 |v5:12|)) (* ?x2830 |v12:5|)) ?x8761) ?x4197) ?x3375)))
 (let ((?x1555 (* 18.0 |v15:2|)))
 (let ((?x4167 (* 11.0 |v14:3|)))
 (let ((?x5904 (* 14.0 |v14:3|)))
 (let ((?x717 (* ?x1928 ?x4296)))
 (let ((?x377 (+ (+ (+ (+ (* ?x6334 |v12:5|) (* ?x4372 |v4:13|)) (* 12.0 ?x1232)) ?x717) ?x5904)))
 (let (($x3455 (or (or (<= (+ (+ ?x377 ?x4167) ?x1555) ?x6334) (<= (+ ?x4478 ?x8660) 2.0)) (or (<= (+ (+ ?x6281 ?x96) ?x2396) 6.0) (<= (+ ?x6842 ?x283) ?x2725)))))
 (let (($x3861 (and (and (and (or $x3455 $x4470) $x7346) $x1006) (or $x1420 (and $x1609 $x83)))))
 (let ((?x795 (+ (+ (+ (+ (* 17.0 |v2:15|) (* ?x5682 ?x2638)) ?x1457) (* 20.0 ?x5647)) ?x3831)))
 (let ((?x5573 (* ?x207 |v12:5|)))
 (let ((?x7308 (* 11.0 ?x2579)))
 (let ((?x3554 (+ (+ (+ (* 17.0 ?x2579) (* ?x5682 ?x2579)) (* ?x4205 |v17:0|)) (* ?x4660 |v12:5|))))
 (let ((?x1718 (* 0.0 ?x2638)))
 (let ((?x120 (+ (+ (+ (+ (+ (* ?x2768 ?x4296) ?x303) (* ?x2092 |v12:5|)) ?x4291) ?x1718) (* ?x1028 |v16:1|))))
 (let (($x6015 (and (<= (+ ?x120 (* 17.0 |v16:1|)) ?x1028) (<= (+ (+ (+ ?x3554 ?x1468) ?x7308) ?x5573) 1.0))))
 (let ((?x2935 (+ (+ (+ (+ (* 13.0 ?x2579) ?x4167) (* ?x2725 |v12:5|)) ?x4197) (* 18.0 |v14:3|))))
 (let ((?x7511 (* ?x4051 |v3:14|)))
 (let ((?x4680 (* 19.0 ?x2638)))
 (let ((?x1542 (+ (+ (+ (+ (* ?x1028 ?x1232) ?x2332) (* 0.0 |v4:13|)) (* ?x5377 |v5:12|)) ?x6826)))
 (let (($x367 (or (<= (+ (+ ?x1542 ?x4680) ?x7511) 14.0) (<= (+ (+ ?x2935 ?x4280) ?x6708) ?x4051))))
 (let ((?x703 (* ?x1928 |v5:12|)))
 (let ((?x4732 (* ?x2830 |v1:16|)))
 (let ((?x585 (+ (+ (+ (+ (* 5.0 ?x4296) (* 12.0 ?x2579)) (* ?x2768 ?x4296)) ?x717) ?x4732)))
 (let ((?x4419 (* 4.0 ?x4296)))
 (let ((?x2737 (+ (+ (+ (+ (* 13.0 ?x4296) (* ?x3791 |v3:14|)) (* ?x207 ?x4296)) ?x2031) ?x1964)))
 (let (($x1899 (and (<= (+ (+ ?x2737 ?x7125) ?x4419) 12.0) (<= (+ (+ ?x585 ?x703) ?x1468) 3.0))))
 (let ((?x1862 (* 2.0 |v4:13|)))
 (let ((?x4696 (+ (+ (+ (+ (* ?x5682 ?x4296) (* ?x4204 |v13:4|)) ?x1301) (* 20.0 |v2:15|)) ?x755)))
 (let ((?x4759 (+ (+ (+ (+ (+ (* ?x4204 |v15:2|) (* 0.0 ?x1232)) ?x895) ?x303) ?x3652) ?x1041)))
 (let (($x623 (or (<= (+ ?x4759 |v12:5|) 6.0) (and (<= (+ (+ ?x4696 ?x1862) (* ?x2092 |v17:0|)) ?x1028) $x1899))))
 (let ((?x2566 (* 6.0 ?x4888)))
 (let ((?x4349 (* 20.0 |v16:1|)))
 (let ((?x471 (* ?x207 |v0:17|)))
 (let ((?x1805 (+ (+ (+ (+ (+ ?x6652 (* 20.0 ?x4888)) ?x4630) (* ?x5682 ?x4888)) ?x471) ?x4349)))
 (let ((?x166 (* 18.0 |v16:1|)))
 (let ((?x3781 (* 15.0 |v16:1|)))
 (let ((?x3486 (+ (+ (+ (+ (+ (* ?x6334 ?x5647) (* 6.0 |v3:14|)) ?x6829) ?x5873) ?x3781) ?x166)))
 (let ((?x2611 (* ?x273 |v5:12|)))
 (let ((?x5471 (* 7.0 |v3:14|)))
 (let ((?x6101 (+ (+ (+ (+ (+ ?x6108 (* ?x4205 |v17:0|)) ?x5169) (* ?x4051 |v4:13|)) ?x5471) ?x2611)))
 (let ((?x1233 (* ?x207 |v17:0|)))
 (let ((?x1593 (* ?x2830 |v15:2|)))
 (let ((?x3245 (* ?x4372 |v2:15|)))
 (let ((?x40 (+ (+ (+ (+ (* 7.0 |v17:0|) ?x3190) (* 4.0 ?x2638)) (* ?x3791 ?x4296)) ?x3245)))
 (let (($x624 (or (<= (+ (+ ?x40 ?x1593) ?x1233) 4.0) (<= (+ ?x6101 (* ?x738 |v17:0|)) 20.0))))
 (let ((?x1018 (* ?x2768 ?x4888)))
 (let ((?x640 (* 4.0 |v4:13|)))
 (let ((?x3309 (+ (+ (+ (+ (+ ?x4069 (* ?x5377 |v0:17|)) ?x534) (* ?x4372 ?x4296)) ?x640) ?x1018)))
 (let ((?x3593 (* 4.0 ?x1232)))
 (let ((?x2169 (* 18.0 |v13:4|)))
 (let ((?x3081 (* ?x1151 ?x5647)))
 (let ((?x1846 (+ (+ (+ (* 20.0 |v1:16|) (* 3.0 |v5:12|)) (* 5.0 |v13:4|)) (* ?x2092 |v15:2|))))
 (let (($x164 (and (<= (+ (+ (+ ?x1846 ?x3081) ?x2169) ?x3593) ?x2092) (<= (+ ?x3309 ?x4392) 10.0))))
 (let (($x4868 (or (or (or $x164 $x624) (<= (+ ?x3486 ?x4308) ?x4204)) (<= (+ ?x1805 ?x2566) 15.0))))
 (let (($x2120 (and $x4868 (or $x623 (and (and $x367 $x6015) (<= (+ (+ ?x795 ?x2091) ?x5873) ?x4205))))))
 (let ((?x7867 (* 10.0 |v0:17|)))
 (let ((?x4147 (* 6.0 |v1:16|)))
 (let ((?x6806 (* 4.0 |v5:12|)))
 (let ((?x8436 (* 16.0 ?x1232)))
 (let ((?x3213 (+ (+ (+ (+ (* ?x1515 |v4:13|) (* 11.0 |v1:16|)) (* 4.0 |v14:3|)) ?x8436) ?x6806)))
 (let ((?x3981 (* 10.0 |v16:1|)))
 (let ((?x3069 (+ (+ (+ (+ (* ?x2830 ?x5647) (* ?x4205 |v3:14|)) (* ?x2768 |v2:15|)) ?x3981) |v17:0|)))
 (let ((?x3403 (* 4.0 |v1:16|)))
 (let ((?x2334 (+ (+ (+ (+ (+ ?x3647 ?x3078) ?x3336) (* ?x1515 |v0:17|)) (* 4.0 ?x4888)) (* ?x3791 |v12:5|))))
 (let (($x5758 (and (<= (+ ?x2334 ?x3403) ?x1151) (<= (+ (+ ?x3069 (* ?x1928 |v17:0|)) ?x4424) ?x1151))))
 (let ((?x1226 (* 17.0 ?x1232)))
 (let ((?x4286 (* ?x4205 |v2:15|)))
 (let ((?x1825 (+ (+ (+ (* 10.0 |v13:4|) (* 14.0 |v16:1|)) (* ?x2830 |v2:15|)) (* ?x1515 |v16:1|))))
 (let ((?x2790 (* 16.0 ?x2579)))
 (let ((?x2628 (* ?x2830 |v5:12|)))
 (let ((?x123 (+ (+ (+ (+ (* 14.0 ?x4296) (* ?x273 ?x2638)) ?x6777) (* ?x6334 |v5:12|)) (* ?x1151 |v16:1|))))
 (let (($x2401 (or (<= (+ (+ ?x123 ?x2628) ?x2790) ?x4660) (<= (+ (+ (+ ?x1825 ?x4286) ?x1226) ?x5097) 3.0))))
 (let ((?x4208 (* 20.0 |v15:2|)))
 (let ((?x4431 (+ (+ (+ (+ (* 12.0 |v5:12|) (* ?x2830 |v2:15|)) (* 6.0 ?x2579)) ?x717) ?x2256)))
 (let ((?x6283 (* 10.0 |v13:4|)))
 (let ((?x616 (* 19.0 |v14:3|)))
 (let ((?x3097 (* 4.0 |v12:5|)))
 (let ((?x5890 (+ (+ (+ (* ?x2725 ?x2579) (* 3.0 |v15:2|)) (* ?x4204 ?x5647)) (* ?x4372 ?x4888))))
 (let (($x5967 (or (<= (+ (+ (+ ?x5890 ?x3097) ?x616) ?x6283) ?x1515) (<= (+ (+ ?x4431 ?x8660) ?x4208) ?x1028))))
 (let ((?x1280 (* 3.0 ?x1232)))
 (let ((?x2614 (+ (+ (+ (+ ?x3647 (* ?x4372 |v17:0|)) (* ?x4372 |v16:1|)) ?x283) (* ?x2768 ?x2638))))
 (let ((?x4387 (* 13.0 |v2:15|)))
 (let ((?x7424 (* 18.0 ?x1232)))
 (let ((?x6291 (* ?x273 |v14:3|)))
 (let ((?x921 (* 14.0 |v0:17|)))
 (let ((?x2432 (+ (+ (+ (+ (* 19.0 ?x4296) (* 3.0 ?x4888)) (* ?x1928 |v14:3|)) ?x921) ?x6291)))
 (let (($x975 (and (<= (+ (+ ?x2432 ?x7424) ?x4387) ?x2092) (<= (+ (+ ?x2614 ?x1280) (* ?x1515 ?x5647)) 12.0))))
 (let ((?x5270 (* 14.0 |v13:4|)))
 (let ((?x4055 (* ?x3791 |v4:13|)))
 (let ((?x3290 (+ (+ (+ (+ (* ?x4204 |v17:0|) (* ?x3791 ?x4888)) (* ?x4205 |v17:0|)) ?x4055) ?x1018)))
 (let ((?x8600 (* ?x5682 |v3:14|)))
 (let ((?x3835 (+ (+ (+ (+ (* 17.0 |v2:15|) (* 19.0 ?x4296)) (* 4.0 |v14:3|)) ?x6479) ?x8600)))
 (let (($x2736 (or (<= (+ (+ ?x3835 (* ?x2830 |v13:4|)) ?x628) 3.0) (<= (+ (+ ?x3290 ?x5270) ?x6829) ?x2830))))
 (let ((?x2320 (* 19.0 ?x4296)))
 (let ((?x3397 (+ (+ (+ (+ (* 2.0 |v3:14|) (* 2.0 |v16:1|)) (* ?x4372 |v0:17|)) ?x3875) ?x1841)))
 (let ((?x2461 (* ?x2768 |v0:17|)))
 (let ((?x3898 (* 5.0 |v3:14|)))
 (let ((?x6173 (* ?x2768 |v3:14|)))
 (let ((?x6486 (+ (+ (+ (+ (+ ?x2790 (* 12.0 |v12:5|)) ?x7186) (* 17.0 |v4:13|)) ?x6173) ?x3898)))
 (let (($x1878 (and (or (<= (+ ?x6486 ?x2461) 2.0) (<= (+ (+ ?x3397 ?x2320) ?x5143) 12.0)) $x2736)))
 (let (($x4932 (and (and $x1878 (and $x975 $x5967)) (or (and $x2401 $x5758) (<= (+ (+ ?x3213 ?x4147) ?x7867) 15.0)))))
 (let ((?x2805 (* ?x2092 ?x2579)))
 (let ((?x5832 (+ (+ (+ (+ ?x7424 (* 10.0 |v17:0|)) (* ?x2768 |v14:3|)) (* 7.0 |v14:3|)) ?x2805)))
 (let ((?x6908 (* ?x2768 |v2:15|)))
 (let ((?x223 (+ (+ (+ (+ (* ?x2725 ?x1232) ?x3871) (* ?x2092 |v14:3|)) (* ?x4205 |v14:3|)) ?x6908)))
 (let (($x1401 (or (<= (+ (+ ?x223 (* ?x4205 ?x5647)) ?x5873) ?x2830) (<= (+ (+ ?x5832 |v5:12|) ?x628) ?x1515))))
 (let ((?x4223 (* ?x2092 ?x2638)))
 (let ((?x2966 (+ (+ (+ (+ (+ (+ (* ?x6334 ?x1232) ?x2208) ?x8436) ?x2091) ?x2256) ?x3875) ?x4223)))
 (let ((?x1432 (* ?x4660 ?x4296)))
 (let ((?x5308 (+ (+ (+ (+ (+ (* ?x4051 |v13:4|) ?x3647) (* ?x6334 |v4:13|)) ?x5097) ?x1432) ?x4419)))
 (let ((?x2802 (* ?x4204 ?x2579)))
 (let ((?x5755 (* 0.0 |v5:12|)))
 (let ((?x3891 (+ (+ (+ (+ (* 20.0 |v2:15|) (* 20.0 ?x2579)) (* 6.0 |v4:13|)) ?x5755) ?x2802)))
 (let ((?x1115 (* 2.0 |v17:0|)))
 (let ((?x3767 (+ (+ (+ (+ (* ?x738 |v0:17|) ?x513) (* ?x4660 |v15:2|)) (* 9.0 |v13:4|)) |v5:12|)))
 (let (($x2869 (or (<= (+ (+ ?x3767 ?x3622) ?x1115) 5.0) (<= (+ (+ ?x3891 ?x5143) ?x3190) ?x4372))))
 (let ((?x4885 (+ (+ (+ (+ (* 5.0 |v13:4|) ?x2169) (* ?x4205 ?x4888)) (* 10.0 |v3:14|)) |v0:17|)))
 (let ((?x698 (* ?x4660 |v3:14|)))
 (let ((?x845 (* 20.0 |v17:0|)))
 (let ((?x296 (+ (+ (+ (+ (* 8.0 ?x4296) ?x4419) (* ?x5682 |v1:16|)) (* 5.0 |v13:4|)) ?x3081)))
 (let (($x5905 (or (<= (+ (+ ?x296 ?x845) ?x698) ?x273) (<= (+ (+ ?x4885 (* ?x4205 |v12:5|)) ?x4069) ?x4051))))
 (let (($x3274 (or (and $x5905 $x2869) (and (and (<= (+ ?x5308 (* ?x6334 |v13:4|)) ?x2830) (<= ?x2966 16.0)) $x1401))))
 (let ((?x2074 (* ?x1928 ?x5647)))
 (let ((?x6192 (* 17.0 |v17:0|)))
 (let ((?x1237 (+ (+ (+ (+ (* 4.0 |v16:1|) (* 10.0 |v17:0|)) ?x3190) (* ?x738 ?x4296)) ?x6192)))
 (let ((?x4454 (* ?x2768 |v14:3|)))
 (let ((?x879 (* 7.0 ?x2579)))
 (let ((?x8003 (+ (+ (+ (+ (* ?x2768 |v16:1|) (* ?x738 |v13:4|)) ?x1432) (* 11.0 ?x1232)) ?x2427)))
 (let (($x2916 (and (<= (+ (+ ?x8003 ?x879) ?x4454) ?x4204) (<= (+ (+ ?x1237 (* ?x2830 |v14:3|)) ?x2074) 13.0))))
 (let ((?x1209 (* 16.0 |v15:2|)))
 (let ((?x5777 (* 6.0 |v16:1|)))
 (let ((?x2446 (+ (+ (+ (+ (+ |v0:17| (* 8.0 |v12:5|)) (* ?x4660 |v2:15|)) ?x191) ?x5777) ?x1651)))
 (let ((?x6091 (* ?x1928 |v4:13|)))
 (let ((?x6574 (* ?x5682 |v0:17|)))
 (let ((?x3562 (* ?x738 ?x4296)))
 (let ((?x5677 (+ (+ (+ (+ (* 17.0 |v5:12|) (* ?x4205 ?x4888)) ?x5270) (* 3.0 |v1:16|)) ?x3562)))
 (let (($x2894 (and (and (<= (+ (+ ?x5677 ?x6574) ?x6091) ?x2092) (<= (+ ?x2446 ?x1209) 8.0)) $x2916)))
 (let ((?x3277 (* 2.0 ?x4296)))
 (let ((?x6870 (* ?x2092 |v1:16|)))
 (let ((?x4288 (* 8.0 |v5:12|)))
 (let ((?x1402 (+ (+ (+ (+ (* 20.0 ?x4296) (* 5.0 |v16:1|)) (* 3.0 |v17:0|)) ?x2794) ?x4288)))
 (let ((?x1310 (* 13.0 |v3:14|)))
 (let ((?x2064 (* ?x3791 |v5:12|)))
 (let ((?x6868 (* 12.0 ?x4296)))
 (let ((?x2416 (+ (+ (+ (+ ?x3981 (* 14.0 ?x2638)) (* ?x1028 ?x1232)) (* ?x1028 |v13:4|)) ?x6868)))
 (let (($x3741 (or (<= (+ (+ ?x2416 ?x2064) ?x1310) 19.0) (<= (+ (+ ?x1402 ?x6870) ?x3277) ?x6334))))
 (let ((?x1716 (* 7.0 |v14:3|)))
 (let ((?x7040 (+ (+ (+ (+ (+ ?x2208 (* 15.0 |v1:16|)) ?x1041) ?x5340) (* 12.0 ?x5647)) ?x1716)))
 (let ((?x4444 (* 17.0 |v12:5|)))
 (let ((?x2902 (+ (+ (+ (+ (+ ?x1753 (* 13.0 |v15:2|)) (* 14.0 |v4:13|)) ?x755) ?x4444) (* 18.0 |v12:5|))))
 (let (($x8909 (and (and (or (<= (+ ?x2902 ?x3781) 1.0) (<= (+ ?x7040 ?x640) ?x2725)) $x3741) $x2894)))
 (let (($x4184 (not (= |v6:11_st| (RMk1 val!8885)))))
 (let (($x3947 (not (= |v7:10_st| (RMk1 val!8884)))))
 (let (($x3746 (not (= |v8:9_st| (RMk1 val!8883)))))
 (let (($x3505 (not (= |v9:8_st| (RMk1 val!8882)))))
 (let (($x1202 (not (= |v10:7_st| (RMk1 val!8881)))))
 (let (($x2351 (not (= |v11:6_st| (RMk1 val!8880)))))
 (and $x2351 $x1202 $x3505 $x3746 $x3947 $x4184 (or (and (or (or $x8909 $x3274) $x4932) $x2120) $x3861))))))))))))))))))))))))))))))))))))))))))))))))))))))))))))))))))))))))))))))))))))))))))))))))))))))))))))))))))))))))))))))))))))))))))))))))))))))))))))))))))))))))))))))))))))))))))))))))))))))))))))))))))))))))))))))))))))))))))))))))))))))))))))))))))))))))))))))))))))))))))))))))))))))))))))))))))))))))))))))))))))))))))))))))))))))))))))))))))))))))))))))))))))))))))))))))))))))))))))
 )
 )
 )
 )
 )
 )
 )
 )
 )
 )
 )
 )
 )
 )
 )
 )
 )
 )
(check-sat)
